results/res_prop_muc/res_Cimatti_mathsat_cores/QF_LRA/tgc_io-safe-6.smt.smt2.res
unsat
( c1000
  c1008
  c1013
  c1014
  c1015
  c1017
  c1021
  c1024
  c1025
  c1027
  c1030
  c1031
  c1032
  c1043
  c1047
  c105
  c1050
  c1051
  c1066
  c1067
  c1078
  c1086
  c1087
  c1097
  c1101
  c1102
  c1104
  c1108
  c111
  c1111
  c1112
  c1114
  c1116
  c1120
  c1132
  c1133
  c1135
  c1138
  c1139
  c1149
  c1150
  c1161
  c1171
  c1172
  c1182
  c1186
  c1188
  c1189
  c1190
  c1191
  c1195
  c1199
  c12
  c1205
  c1206
  c1214
  c1215
  c1227
  c1238
  c1248
  c1256
  c1260
  c1265
  c1269
  c1273
  c1278
  c1279
  c1280
  c1291
  c1298
  c1299
  c13
  c1316
  c1326
  c1334
  c1338
  c1339
  c1340
  c1341
  c1345
  c1349
  c1353
  c1357
  c1358
  c1369
  c1375
  c1376
  c1388
  c1398
  c14
  c1408
  c1412
  c1414
  c1415
  c1416
  c1417
  c1421
  c1425
  c1431
  c1432
  c1440
  c1441
  c1454
  c1464
  c1472
  c1476
  c1482
  c1487
  c1491
  c1492
  c1496
  c1497
  c15
  c1510
  c1511
  c1523
  c16
  c17
  c273
  c276
  c277
  c280
  c281
  c283
  c288
  c29
  c303
  c306
  c307
  c32
  c322
  c324
  c332
  c334
  c342
  c343
  c345
  c35
  c353
  c359
  c370
  c389
  c39
  c40
  c405
  c415
  c427
  c438
  c457
  c467
  c482
  c492
  c503
  c51
  c512
  c521
  c525
  c528
  c529
  c531
  c532
  c533
  c534
  c535
  c536
  c547
  c551
  c554
  c555
  c575
  c576
  c580
  c585
  c586
  c59
  c590
  c591
  c593
  c601
  c602
  c604
  c605
  c607
  c608
  c612
  c615
  c618
  c620
  c621
  c624
  c625
  c636
  c637
  c654
  c655
  c663
  c666
  c675
  c676
  c680
  c686
  c690
  c693
  c694
  c695
  c705
  c707
  c714
  c715
  c730
  c731
  c74
  c742
  c751
  c752
  c760
  c765
  c766
  c767
  c769
  c773
  c776
  c777
  c779
  c780
  c783
  c784
  c795
  c799
  c80
  c802
  c803
  c818
  c820
  c828
  c830
  c839
  c84
  c841
  c849
  c85
  c850
  c853
  c855
  c856
  c86
  c860
  c863
  c864
  c866
  c868
  c869
  c872
  c873
  c884
  c885
  c887
  c890
  c891
  c901
  c903
  c911
  c913
  c923
  c924
  c926
  c928
  c934
  c935
  c94
  c941
  c942
  c943
  c947
  c95
  c951
  c953
  c955
  c96
  c962
  c966
  c967
  c97
  c979
  c990 )
